results_rootrelaxation/bin018_070_011.srr.sol
solution status: optimal solution found
objective value:                     3.16903740987059
_var3096_                            0.08698794260486 	(obj:0)
_var3142_                           0.261769647276449 	(obj:0)
_var3155_                           0.160129282348883 	(obj:0)
_var3196_                           0.159214398850174 	(obj:0)
_var3205_                          0.0676454879406481 	(obj:0)
_var3214_                           0.117906586547922 	(obj:0)
_var3226_                          0.0871026514896034 	(obj:0)
_var3243_                          0.0862815003420319 	(obj:0)
_var3258_                           0.256064866410844 	(obj:1)
_var3264_                          0.0346240336159828 	(obj:0)
_var3276_                          0.0186633306776982 	(obj:1)
_var3285_                          0.0828952187998805 	(obj:0)
_var3288_                           0.214575025185778 	(obj:0)
_var3289_                            0.12822390505282 	(obj:1)
_var3295_                          0.0913884151552869 	(obj:0)
_var3297_                          0.0293923746328097 	(obj:1)
_var3299_                           0.226512763488955 	(obj:0)
_var3302_                          0.0246775328362924 	(obj:0)
_var3347_                           0.109574024444842 	(obj:0)
_var3350_                          0.0146203651617287 	(obj:0)
_var3357_                           0.100655513190548 	(obj:1)
_var3366_                           0.105178569537015 	(obj:0)
_var3371_                          0.0458439005815427 	(obj:0)
_var3395_                           0.111739276600894 	(obj:0)
_var3401_                          0.0304445464078944 	(obj:0)
_var3402_                          0.0172340691241584 	(obj:0)
_var3438_                           0.116212923105748 	(obj:0)
_var3444_                           0.521765348829306 	(obj:0)
_var3455_                           0.283495203412445 	(obj:0)
_var3457_                          0.0458730307843458 	(obj:1)
_var3482_                          0.0636772295476747 	(obj:0)
_var3490_                           0.174417158999625 	(obj:0)
_var3494_                            0.33096663211927 	(obj:0)
_var3495_                         0.00890812752171369 	(obj:0)
_var3502_                          0.0790622973778284 	(obj:0)
_var3504_                           0.296110114396677 	(obj:0)
_var3505_                           0.600548330769689 	(obj:0)
_var3509_                          0.0253503847695669 	(obj:0)
_var3520_                           0.116286793954968 	(obj:0)
_var3521_                           0.195836638937685 	(obj:0)
_var3523_                           0.032533976409275 	(obj:1)
_var3534_                           0.304308175802577 	(obj:0)
_var3535_                          0.0417968930757167 	(obj:1)
_var3544_                           0.349544941630875 	(obj:1)
_var3545_                           0.180425925378738 	(obj:0)
_var3546_                           0.127488332587189 	(obj:1)
_var3549_                          0.0866968496452231 	(obj:0)
_var3555_                          0.0211757061356268 	(obj:0)
_var3557_                           0.302505378634096 	(obj:0)
_var3561_                           0.144359877034304 	(obj:0)
_var3567_                          0.0499812256539805 	(obj:0)
_var3571_                           0.126199774094577 	(obj:0)
_var3575_                           0.355219686330439 	(obj:0)
_var3581_                           0.308308630735513 	(obj:0)
_var3582_                          0.0269066902458683 	(obj:0)
_var3587_                           0.172938905741356 	(obj:0)
_var3589_                            0.11488547788307 	(obj:0)
_var3596_                           0.150374079192897 	(obj:0)
_var3598_                           0.161837092755587 	(obj:0)
_var3604_                          0.0406449956541652 	(obj:0)
_var3606_                          0.0238570088940497 	(obj:0)
_var3607_                           0.244993368349049 	(obj:0)
_var3609_                           0.287506111767431 	(obj:0)
_var3610_                           0.154548200310989 	(obj:0)
_var3612_                           0.149078830510165 	(obj:0)
_var3618_                           0.119394108507078 	(obj:0)
_var3627_                           0.135451749512591 	(obj:0)
_var3628_                          0.0208537407361719 	(obj:1)
_var3632_                          0.0646756707333682 	(obj:0)
_var3636_                           0.279218325155507 	(obj:1)
_var3638_                           0.150036154902435 	(obj:0)
_var3641_                          0.0517245776956809 	(obj:0)
_var3643_                          0.0395190924088056 	(obj:0)
_var3644_                           0.335295742641759 	(obj:0)
_var3645_                          0.0639254634768673 	(obj:1)
_var3646_                           0.127523247016875 	(obj:0)
_var3647_                           0.158823162107201 	(obj:0)
_var3648_                           0.030616470356049 	(obj:1)
_var3652_                           0.141128027380722 	(obj:0)
_var3653_                           0.127960827264314 	(obj:1)
_var3654_                           0.167832618133426 	(obj:0)
_var3656_                          0.0269066902458683 	(obj:0)
_var3659_                           0.357114543302537 	(obj:0)
_var3661_                         0.00975520315598521 	(obj:0)
_var3664_                          0.0458439005815426 	(obj:1)
_var3665_                          0.0246775328362924 	(obj:0)
_var3669_                           0.172509862455266 	(obj:1)
_var3670_                         0.00345792232800939 	(obj:0)
_var3678_                           0.238838114682127 	(obj:1)
_var3679_                           0.310098465660648 	(obj:0)
_var3680_                           0.269853627002945 	(obj:0)
_var3682_                           0.256780925821957 	(obj:0)
_var3683_                          0.0831634884546762 	(obj:1)
_var3692_                         0.00667743694357223 	(obj:1)
_var3695_                           0.149809455022689 	(obj:1)
_var3698_                           0.263678302765669 	(obj:0)
_var3701_                           0.130608888140576 	(obj:0)
_var3702_                           0.155486847922506 	(obj:0)
_var3703_                           0.136756545654134 	(obj:0)
_var3704_                           0.152874677128632 	(obj:0)
_var3708_                           0.167527447898753 	(obj:1)
_var3709_                          0.0969050344238112 	(obj:1)
_var3711_                          0.0180154275784102 	(obj:0)
_var3712_                          0.0776489947153075 	(obj:0)
_var3715_                          0.0431880344834734 	(obj:0)
_var3717_                          0.0952379226736689 	(obj:0)
_var3718_                            0.10277693066343 	(obj:0)
_var3720_                          0.0184948912035574 	(obj:0)
_var3721_                         0.00877620533531387 	(obj:0)
_var3722_                           0.125023694423331 	(obj:0)
_var3726_                           0.339874759640983 	(obj:0)
_var3727_                          0.0267556034523606 	(obj:0)
_var3729_                           0.270043391458079 	(obj:0)
_var3732_                          0.0424270253574924 	(obj:0)
_var3735_                          0.0521765836655549 	(obj:1)
_var3738_                          0.0474928930667886 	(obj:0)
_var3743_                          0.0591971019211495 	(obj:0)
_var3744_                           0.129856241752252 	(obj:0)
_var3747_                          0.0186633306776995 	(obj:0)
_var3752_                          0.0906304026769745 	(obj:1)
_var3753_                          0.0780277570412818 	(obj:1)
_var3754_                           0.035770495258049 	(obj:1)
_var3756_                           0.018833512388844 	(obj:0)
_var3757_                          0.0689777765822272 	(obj:1)
_var3758_                          0.0878832433595548 	(obj:0)
_var3760_                          0.0323872103635567 	(obj:1)
_var3761_                          0.0207174978019929 	(obj:0)
_var3762_                           0.080892064375241 	(obj:0)
_var3764_                          0.0495154908564566 	(obj:0)
_var3770_                          0.0961943759474272 	(obj:1)
_var3774_                          0.0784633859832671 	(obj:0)
_var3775_                          0.0250392909290451 	(obj:1)
_var3778_                          0.0652651392033382 	(obj:1)
_var3780_                          0.0426192289444384 	(obj:0)
_var3781_                          0.0404725141901741 	(obj:0)
_var3782_                         0.00849100113677312 	(obj:1)
_var3783_                          0.0323119457247239 	(obj:0)
_var3784_                         0.00199064516289957 	(obj:1)
_var3785_                          0.0105925222629975 	(obj:0)
